decision_x1=[0,7];
decision_x2=[0,7];
decision_x3=[0,7];
decision_x4=[0,7];
decision_x5=[0,7];
decision_x6=[0,7];
decision_x7=[0,7];
decision_x8=[0,7];
decision_x9=[0,7];
decision_x10=[0,7];
decision_x11=[0,7];
decision_x12=[0,7];
decision_x13=[0,7];
decision_x14=[0,7];
decision_x15=[0,7];
decision_x16=[0,7];
decision_x17=[0,7];
decision_x18=[0,7];
random_y1=[0,7];
random_y2=[0,7];
random_y3=[0,7];
random_y4=[0,7];
random_y5=[0,7];
random_y6=[0,7];
random_y7=[0,7];
random_y8=[0,7];
constraint_x2_x1=[
0,0,8.1|
0,1,0.78|
0,2,2.1|
0,3,9.4|
0,4,4.1|
0,5,8.8|
0,6,1.5|
0,7,6.9|
1,0,3.3|
1,1,5.5|
1,2,1.1|
1,3,8.2|
1,4,3.8|
1,5,3.2|
1,6,7.7|
1,7,6.5|
2,0,9.8|
2,1,7.6|
2,2,5.6|
2,3,4.6|
2,4,4.2|
2,5,3.9|
2,6,9.8|
2,7,3|
3,0,5.6|
3,1,9.9|
3,2,3.1|
3,3,9.3|
3,4,3.8|
3,5,4.3|
3,6,5.4|
3,7,1.5|
4,0,2.2|
4,1,0.72|
4,2,5.9|
4,3,2.5|
4,4,1.4|
4,5,5|
4,6,0.078|
4,7,2.5|
5,0,5.3|
5,1,9.8|
5,2,1.4|
5,3,7.2|
5,4,3.3|
5,5,2.5|
5,6,3.3|
5,7,5.1|
6,0,0.32|
6,1,7.9|
6,2,0.18|
6,3,9.7|
6,4,8.8|
6,5,0.26|
6,6,5.9|
6,7,6.8|
7,0,4.2|
7,1,7.7|
7,2,1.7|
7,3,1.8|
7,4,0.93|
7,5,4|
7,6,3.4|
7,7,9.9|
];
constraint_x3_x2=[
0,0,0.46|
0,1,8.5|
0,2,4.9|
0,3,4.1|
0,4,8|
0,5,8.6|
0,6,4|
0,7,1.7|
1,0,6.8|
1,1,9.8|
1,2,7|
1,3,3.7|
1,4,3.9|
1,5,3.4|
1,6,3.4|
1,7,1.8|
2,0,4.6|
2,1,3.3|
2,2,6.6|
2,3,3.9|
2,4,9.2|
2,5,3.9|
2,6,9.3|
2,7,6.5|
3,0,6.2|
3,1,1.3|
3,2,4|
3,3,9.3|
3,4,5.7|
3,5,9.2|
3,6,0.082|
3,7,6.6|
4,0,7|
4,1,3.7|
4,2,9.5|
4,3,3.4|
4,4,9.7|
4,5,4.9|
4,6,6.6|
4,7,3.5|
5,0,7.7|
5,1,1.9|
5,2,3.1|
5,3,9.1|
5,4,7.3|
5,5,5.6|
5,6,9.3|
5,7,4.8|
6,0,7.1|
6,1,6.5|
6,2,8.9|
6,3,1.2|
6,4,6.9|
6,5,9|
6,6,4.2|
6,7,3.4|
7,0,10|
7,1,4.9|
7,2,9|
7,3,0.96|
7,4,7.8|
7,5,4|
7,6,3.8|
7,7,2.9|
];
constraint_x4_x3=[
0,0,1.8|
0,1,3.3|
0,2,5.4|
0,3,8.4|
0,4,5.5|
0,5,2.9|
0,6,1.3|
0,7,1.7|
1,0,5.4|
1,1,5.1|
1,2,6.1|
1,3,0.58|
1,4,8.1|
1,5,5.1|
1,6,8.3|
1,7,5.5|
2,0,1.8|
2,1,4.3|
2,2,0.95|
2,3,8.3|
2,4,4.5|
2,5,4.1|
2,6,5.6|
2,7,5.5|
3,0,8.3|
3,1,4.4|
3,2,8.9|
3,3,0.62|
3,4,0.67|
3,5,5.1|
3,6,9.3|
3,7,4.7|
4,0,0.67|
4,1,2.7|
4,2,5.1|
4,3,8.4|
4,4,6.1|
4,5,7.3|
4,6,9.7|
4,7,7.2|
5,0,5.6|
5,1,8.6|
5,2,5.9|
5,3,3.3|
5,4,7.8|
5,5,4.1|
5,6,7.5|
5,7,4.5|
6,0,8.6|
6,1,9.8|
6,2,2.6|
6,3,9.1|
6,4,4.9|
6,5,2|
6,6,8.6|
6,7,1.2|
7,0,9.6|
7,1,3.2|
7,2,5.9|
7,3,7.3|
7,4,9.4|
7,5,2.3|
7,6,6.7|
7,7,6.6|
];
constraint_x5_x1=[
0,0,2.5|
0,1,6.1|
0,2,2.9|
0,3,9.8|
0,4,0.28|
0,5,3.4|
0,6,1.3|
0,7,6.3|
1,0,1.6|
1,1,8.8|
1,2,9.1|
1,3,1.5|
1,4,5.3|
1,5,0.14|
1,6,5.8|
1,7,2.2|
2,0,4.4|
2,1,7.5|
2,2,9.4|
2,3,1.4|
2,4,9.5|
2,5,4.4|
2,6,1.9|
2,7,8.7|
3,0,1.9|
3,1,5.6|
3,2,2.7|
3,3,7.6|
3,4,8.4|
3,5,7.7|
3,6,5.1|
3,7,9.8|
4,0,3.4|
4,1,0.17|
4,2,6.1|
4,3,1.3|
4,4,1.1|
4,5,1.6|
4,6,0.46|
4,7,2.7|
5,0,4.9|
5,1,8.3|
5,2,5.4|
5,3,9.8|
5,4,4.9|
5,5,9|
5,6,1.6|
5,7,9.3|
6,0,1.3|
6,1,5.6|
6,2,3.4|
6,3,3.8|
6,4,0.77|
6,5,9.8|
6,6,8.9|
6,7,7.8|
7,0,6.4|
7,1,0.87|
7,2,1.4|
7,3,6.8|
7,4,1.3|
7,5,9.5|
7,6,6.3|
7,7,2.7|
];
constraint_x6_x2=[
0,0,4.3|
0,1,7.5|
0,2,5.5|
0,3,6.7|
0,4,8.2|
0,5,7.6|
0,6,0.18|
0,7,1.9|
1,0,7.7|
1,1,0.19|
1,2,5.4|
1,3,2.4|
1,4,6.8|
1,5,6.8|
1,6,1.5|
1,7,6.4|
2,0,5.8|
2,1,4.8|
2,2,3.5|
2,3,6.5|
2,4,7.6|
2,5,7.2|
2,6,9.4|
2,7,8.7|
3,0,9.8|
3,1,3.1|
3,2,0.99|
3,3,3.2|
3,4,2.6|
3,5,6.3|
3,6,7|
3,7,6.2|
4,0,3.4|
4,1,4.7|
4,2,2.2|
4,3,7.6|
4,4,4.3|
4,5,1.4|
4,6,2.2|
4,7,1.4|
5,0,8.4|
5,1,2.3|
5,2,1.1|
5,3,3.1|
5,4,0.48|
5,5,4.3|
5,6,0.15|
5,7,9.7|
6,0,0.5|
6,1,7.3|
6,2,3.3|
6,3,9.7|
6,4,3.7|
6,5,2.2|
6,6,8.1|
6,7,8|
7,0,4.5|
7,1,7.3|
7,2,5.1|
7,3,0.17|
7,4,0.22|
7,5,1.4|
7,6,4.4|
7,7,5|
];
constraint_x7_x3=[
0,0,4.5|
0,1,0.25|
0,2,2.3|
0,3,6.7|
0,4,2.2|
0,5,8.1|
0,6,4.4|
0,7,6.6|
1,0,2.9|
1,1,5|
1,2,9.8|
1,3,4.2|
1,4,4.1|
1,5,8.1|
1,6,10|
1,7,8.6|
2,0,0.13|
2,1,4.9|
2,2,0.047|
2,3,7.3|
2,4,4.1|
2,5,6|
2,6,8.2|
2,7,4.4|
3,0,0.97|
3,1,3.2|
3,2,7.2|
3,3,1.1|
3,4,1|
3,5,8.4|
3,6,0.53|
3,7,7.8|
4,0,2.7|
4,1,4.9|
4,2,7.1|
4,3,0.22|
4,4,1.7|
4,5,7.4|
4,6,2.7|
4,7,7.6|
5,0,8.4|
5,1,8.2|
5,2,2.1|
5,3,3.1|
5,4,5.5|
5,5,2.9|
5,6,4.8|
5,7,6|
6,0,7.7|
6,1,1|
6,2,1.1|
6,3,9.9|
6,4,9.7|
6,5,3.9|
6,6,5.2|
6,7,2.8|
7,0,6.1|
7,1,5.2|
7,2,3.5|
7,3,1.4|
7,4,8.3|
7,5,5.7|
7,6,8.5|
7,7,4.1|
];
constraint_x8_x4=[
0,0,3.6|
0,1,3|
0,2,7.8|
0,3,3.1|
0,4,5.2|
0,5,2.9|
0,6,4.1|
0,7,8.4|
1,0,9.9|
1,1,2.6|
1,2,0.8|
1,3,5.6|
1,4,8.6|
1,5,6.4|
1,6,1.9|
1,7,5.8|
2,0,1|
2,1,6.1|
2,2,0.29|
2,3,3.9|
2,4,0.41|
2,5,0.044|
2,6,3.8|
2,7,4.2|
3,0,0.71|
3,1,1.3|
3,2,8.6|
3,3,0.094|
3,4,0.59|
3,5,8.9|
3,6,9.7|
3,7,8.8|
4,0,5.7|
4,1,0.86|
4,2,0.82|
4,3,8.1|
4,4,7.9|
4,5,6.7|
4,6,8.4|
4,7,0.57|
5,0,1.7|
5,1,7.1|
5,2,0.41|
5,3,1.5|
5,4,3.6|
5,5,4.7|
5,6,6.8|
5,7,6.9|
6,0,4.9|
6,1,8.1|
6,2,4.5|
6,3,6.1|
6,4,7.6|
6,5,8.9|
6,6,1.3|
6,7,8.7|
7,0,2.6|
7,1,9.8|
7,2,8.2|
7,3,7.5|
7,4,8.5|
7,5,6.4|
7,6,1.4|
7,7,4|
];
constraint_x9_x5=[
0,0,8|
0,1,4.3|
0,2,0.46|
0,3,5.5|
0,4,9.9|
0,5,2|
0,6,6.5|
0,7,7.3|
1,0,6|
1,1,9.2|
1,2,1.9|
1,3,2.8|
1,4,9.1|
1,5,6.3|
1,6,5.5|
1,7,3.2|
2,0,7.9|
2,1,9.3|
2,2,0.84|
2,3,8.2|
2,4,7|
2,5,6.4|
2,6,6.7|
2,7,9.1|
3,0,3.8|
3,1,0.088|
3,2,7|
3,3,8.4|
3,4,7.6|
3,5,8.8|
3,6,6.2|
3,7,1.7|
4,0,9.3|
4,1,4.8|
4,2,0.012|
4,3,10|
4,4,7.8|
4,5,9.1|
4,6,6.2|
4,7,2.2|
5,0,7.7|
5,1,5.5|
5,2,3.7|
5,3,1.2|
5,4,9.7|
5,5,0.03|
5,6,2|
5,7,1.8|
6,0,5.4|
6,1,4.5|
6,2,4.5|
6,3,5.6|
6,4,8.2|
6,5,9.8|
6,6,3.5|
6,7,5.2|
7,0,7.2|
7,1,5.7|
7,2,9.8|
7,3,6.9|
7,4,7.7|
7,5,3.4|
7,6,0.76|
7,7,2.3|
];
constraint_x10_x6=[
0,0,8.6|
0,1,9.8|
0,2,3.8|
0,3,7.5|
0,4,7.2|
0,5,0.5|
0,6,8.7|
0,7,3.3|
1,0,7.7|
1,1,9.8|
1,2,5|
1,3,1.3|
1,4,5|
1,5,7.7|
1,6,2.3|
1,7,5.3|
2,0,3.1|
2,1,9|
2,2,0.55|
2,3,3.4|
2,4,7.9|
2,5,6.5|
2,6,6.9|
2,7,0.19|
3,0,9.9|
3,1,4|
3,2,2.9|
3,3,4.8|
3,4,9.6|
3,5,6.5|
3,6,7.1|
3,7,9.2|
4,0,4|
4,1,4|
4,2,2.6|
4,3,8.1|
4,4,4.9|
4,5,4.7|
4,6,2.3|
4,7,7.4|
5,0,0.61|
5,1,3|
5,2,8.6|
5,3,8.8|
5,4,1.4|
5,5,1.6|
5,6,7.9|
5,7,7.9|
6,0,2.2|
6,1,1.5|
6,2,7|
6,3,2.2|
6,4,0.78|
6,5,8.4|
6,6,4.8|
6,7,9.5|
7,0,9.3|
7,1,9.2|
7,2,0.77|
7,3,3|
7,4,0.21|
7,5,6.3|
7,6,5.6|
7,7,8.6|
];
constraint_x11_x7=[
0,0,3.8|
0,1,2.9|
0,2,7.4|
0,3,2.6|
0,4,9.7|
0,5,4.5|
0,6,0.86|
0,7,9.1|
1,0,1.6|
1,1,3.9|
1,2,2.1|
1,3,8|
1,4,8.6|
1,5,8.9|
1,6,9.8|
1,7,4.3|
2,0,4.1|
2,1,5.5|
2,2,1.4|
2,3,4.7|
2,4,8.9|
2,5,0.34|
2,6,7.1|
2,7,9.2|
3,0,2.5|
3,1,8.2|
3,2,8.3|
3,3,8.7|
3,4,0.21|
3,5,5.4|
3,6,1.7|
3,7,8.4|
4,0,8.4|
4,1,5.4|
4,2,7.5|
4,3,1.7|
4,4,0.25|
4,5,8.4|
4,6,3.4|
4,7,8.2|
5,0,5.8|
5,1,6.9|
5,2,3.8|
5,3,5.6|
5,4,9.4|
5,5,4.2|
5,6,5.6|
5,7,4.6|
6,0,4.9|
6,1,5.4|
6,2,7.7|
6,3,4.6|
6,4,6.9|
6,5,1|
6,6,2.4|
6,7,7.9|
7,0,9.7|
7,1,3.2|
7,2,3.5|
7,3,1|
7,4,5.7|
7,5,0.67|
7,6,1.5|
7,7,3.7|
];
constraint_x12_x8=[
0,0,10|
0,1,5.4|
0,2,6.9|
0,3,5.9|
0,4,7.2|
0,5,0.67|
0,6,3.9|
0,7,2.8|
1,0,9.5|
1,1,3.2|
1,2,9.3|
1,3,4.5|
1,4,2.8|
1,5,4.8|
1,6,0.84|
1,7,2.5|
2,0,9.9|
2,1,1.7|
2,2,0.27|
2,3,8.9|
2,4,0.91|
2,5,7.5|
2,6,4.1|
2,7,9.1|
3,0,5.4|
3,1,4.3|
3,2,8.8|
3,3,0.29|
3,4,8.6|
3,5,4.1|
3,6,9.2|
3,7,2.5|
4,0,9.9|
4,1,3|
4,2,6.5|
4,3,8.8|
4,4,7|
4,5,3.9|
4,6,4.1|
4,7,2.5|
5,0,8.4|
5,1,8.2|
5,2,6.5|
5,3,5.4|
5,4,4.9|
5,5,7.7|
5,6,7.4|
5,7,3.5|
6,0,4.1|
6,1,6.1|
6,2,7.8|
6,3,3.7|
6,4,7.7|
6,5,5.3|
6,6,4.4|
6,7,6.5|
7,0,4|
7,1,3.9|
7,2,9.5|
7,3,9.8|
7,4,7.1|
7,5,5.1|
7,6,1.4|
7,7,8.1|
];
constraint_x13_x9=[
0,0,2.3|
0,1,8.8|
0,2,7.6|
0,3,7.4|
0,4,3.4|
0,5,3.2|
0,6,1.7|
0,7,4.6|
1,0,9.1|
1,1,4|
1,2,5.2|
1,3,9.4|
1,4,9.4|
1,5,7.5|
1,6,6.1|
1,7,6.4|
2,0,8.2|
2,1,6.6|
2,2,6.7|
2,3,4.4|
2,4,0.38|
2,5,4.3|
2,6,0.34|
2,7,0.68|
3,0,9.5|
3,1,0.97|
3,2,6.4|
3,3,0.34|
3,4,7.5|
3,5,1.1|
3,6,1.6|
3,7,2.3|
4,0,3.3|
4,1,4.8|
4,2,0.2|
4,3,5.8|
4,4,5.2|
4,5,3.7|
4,6,5|
4,7,8.5|
5,0,5.9|
5,1,8.9|
5,2,7.4|
5,3,6.6|
5,4,3.4|
5,5,3.3|
5,6,4.9|
5,7,1.8|
6,0,8.6|
6,1,8.9|
6,2,4.9|
6,3,7.8|
6,4,6.6|
6,5,6.8|
6,6,0.52|
6,7,2.8|
7,0,6.4|
7,1,8.6|
7,2,8.9|
7,3,8.1|
7,4,4.9|
7,5,0.5|
7,6,5.2|
7,7,5.1|
];
constraint_x14_x10=[
0,0,2.7|
0,1,8.6|
0,2,6.9|
0,3,7.7|
0,4,5.4|
0,5,7.2|
0,6,5.3|
0,7,8.1|
1,0,8.1|
1,1,8.2|
1,2,9.7|
1,3,6.7|
1,4,8.3|
1,5,2.7|
1,6,8.9|
1,7,6.7|
2,0,5.6|
2,1,8|
2,2,4.7|
2,3,2.3|
2,4,9.1|
2,5,8.4|
2,6,3.5|
2,7,9.9|
3,0,9.4|
3,1,6.8|
3,2,5.4|
3,3,4.1|
3,4,8.1|
3,5,2.5|
3,6,3.7|
3,7,4.2|
4,0,7|
4,1,2.2|
4,2,5.9|
4,3,2.3|
4,4,5.1|
4,5,0.51|
4,6,0.86|
4,7,7.2|
5,0,8.9|
5,1,4.1|
5,2,4|
5,3,0.53|
5,4,5.4|
5,5,6.8|
5,6,8.1|
5,7,6.1|
6,0,4.1|
6,1,0.66|
6,2,1.1|
6,3,5.8|
6,4,6.8|
6,5,4.4|
6,6,9.5|
6,7,5.6|
7,0,5|
7,1,6|
7,2,6.8|
7,3,6.9|
7,4,8.1|
7,5,9.7|
7,6,0.055|
7,7,3.5|
];
constraint_x15_x11=[
0,0,8.7|
0,1,0.84|
0,2,8.6|
0,3,8.5|
0,4,1.1|
0,5,9.3|
0,6,5.7|
0,7,2.6|
1,0,2.1|
1,1,4.5|
1,2,4.7|
1,3,9.7|
1,4,4.1|
1,5,2.3|
1,6,1.3|
1,7,3.2|
2,0,0.61|
2,1,4.2|
2,2,6.9|
2,3,9.1|
2,4,7.5|
2,5,5.8|
2,6,7.3|
2,7,6.5|
3,0,2.1|
3,1,4.3|
3,2,8.5|
3,3,6.8|
3,4,8|
3,5,9.3|
3,6,9|
3,7,5.9|
4,0,4.1|
4,1,5.8|
4,2,4.1|
4,3,8.8|
4,4,8.6|
4,5,8.2|
4,6,2.8|
4,7,8.6|
5,0,3.5|
5,1,7.7|
5,2,4.7|
5,3,6.8|
5,4,2.9|
5,5,3.9|
5,6,8.1|
5,7,8.3|
6,0,1.8|
6,1,8.9|
6,2,8.1|
6,3,1.5|
6,4,2.9|
6,5,3.3|
6,6,7.4|
6,7,2.5|
7,0,9.2|
7,1,7.6|
7,2,6.9|
7,3,8.9|
7,4,4.7|
7,5,7.7|
7,6,9.8|
7,7,0.32|
];
constraint_x16_x12=[
0,0,1.9|
0,1,5.1|
0,2,0.95|
0,3,4.2|
0,4,7.8|
0,5,0.24|
0,6,8.5|
0,7,0.88|
1,0,9.4|
1,1,9.2|
1,2,0.18|
1,3,3.7|
1,4,1|
1,5,2.2|
1,6,7.5|
1,7,6.3|
2,0,2.2|
2,1,9.6|
2,2,7.5|
2,3,9.6|
2,4,2.6|
2,5,5.3|
2,6,7.5|
2,7,9.7|
3,0,5.8|
3,1,2.6|
3,2,6.5|
3,3,5.4|
3,4,7.2|
3,5,2.8|
3,6,4.2|
3,7,4.2|
4,0,7.4|
4,1,5.8|
4,2,5.2|
4,3,7.7|
4,4,3.1|
4,5,3|
4,6,2.3|
4,7,5.5|
5,0,5.3|
5,1,7.6|
5,2,2.3|
5,3,0.64|
5,4,0.9|
5,5,1.7|
5,6,3.5|
5,7,6.1|
6,0,6.5|
6,1,8.1|
6,2,0.51|
6,3,9.6|
6,4,7.8|
6,5,8.6|
6,6,6.5|
6,7,1.4|
7,0,1.8|
7,1,9.6|
7,2,7|
7,3,3.7|
7,4,5.5|
7,5,3.9|
7,6,6.5|
7,7,9.6|
];
constraint_x17_x13=[
0,0,6.1|
0,1,9|
0,2,1.8|
0,3,2.2|
0,4,7.8|
0,5,2.8|
0,6,8.9|
0,7,1.4|
1,0,0.18|
1,1,5.3|
1,2,2.6|
1,3,7.2|
1,4,8|
1,5,1.8|
1,6,8.9|
1,7,3.1|
2,0,9.6|
2,1,3.2|
2,2,0.7|
2,3,9.1|
2,4,3.1|
2,5,1.9|
2,6,3.8|
2,7,2.8|
3,0,1.5|
3,1,3.7|
3,2,8.8|
3,3,4.3|
3,4,3|
3,5,6.8|
3,6,0.21|
3,7,2.2|
4,0,2|
4,1,6.3|
4,2,3.7|
4,3,6.1|
4,4,4.4|
4,5,1.6|
4,6,6.9|
4,7,8.6|
5,0,3.3|
5,1,9.2|
5,2,6.3|
5,3,9.8|
5,4,1|
5,5,1.4|
5,6,0.82|
5,7,9.3|
6,0,9.8|
6,1,1.2|
6,2,6.9|
6,3,8.9|
6,4,7|
6,5,5.4|
6,6,7|
6,7,4.5|
7,0,8.5|
7,1,5.3|
7,2,4.1|
7,3,6.2|
7,4,1.2|
7,5,4.6|
7,6,3.8|
7,7,8|
];
constraint_x18_x14=[
0,0,5.3|
0,1,3.5|
0,2,6.8|
0,3,7.3|
0,4,7.4|
0,5,8.1|
0,6,1.2|
0,7,6.2|
1,0,3.8|
1,1,1|
1,2,3.2|
1,3,8.7|
1,4,7.1|
1,5,5.2|
1,6,0.57|
1,7,4.5|
2,0,7.2|
2,1,4.3|
2,2,7.9|
2,3,9.7|
2,4,7.9|
2,5,6.8|
2,6,3.1|
2,7,0.31|
3,0,5.6|
3,1,5.7|
3,2,8.5|
3,3,5.7|
3,4,1.3|
3,5,0.15|
3,6,1.9|
3,7,4.2|
4,0,2|
4,1,7.7|
4,2,0.15|
4,3,3|
4,4,7.5|
4,5,8.3|
4,6,3.1|
4,7,7.7|
5,0,0.15|
5,1,2.6|
5,2,6.2|
5,3,3.6|
5,4,8.9|
5,5,9.1|
5,6,5|
5,7,10|
6,0,3.4|
6,1,5.8|
6,2,7.7|
6,3,3.9|
6,4,5.4|
6,5,5.6|
6,6,6.2|
6,7,9.5|
7,0,4.3|
7,1,3.3|
7,2,2.7|
7,3,6.7|
7,4,5.3|
7,5,5.8|
7,6,4.8|
7,7,7.7|
];
constraint_x1_y1=[
0,0,0.76|
0,1,6|
0,2,7.7|
0,3,4.7|
0,4,1.1|
0,5,4.1|
0,6,8.7|
0,7,5.2|
1,0,1.3|
1,1,4.5|
1,2,1.3|
1,3,2|
1,4,4.4|
1,5,6|
1,6,3.7|
1,7,3.5|
2,0,7.1|
2,1,0.95|
2,2,0.94|
2,3,1.1|
2,4,9.8|
2,5,9.9|
2,6,5.6|
2,7,5.7|
3,0,7.2|
3,1,4.6|
3,2,9.2|
3,3,0.2|
3,4,7.7|
3,5,4.3|
3,6,8|
3,7,1.5|
4,0,3.5|
4,1,7.7|
4,2,0.23|
4,3,5.7|
4,4,3|
4,5,3.3|
4,6,1.6|
4,7,9.1|
5,0,5.2|
5,1,7.5|
5,2,2.1|
5,3,6.5|
5,4,6.4|
5,5,9.7|
5,6,1|
5,7,2.5|
6,0,2.9|
6,1,1.5|
6,2,1.5|
6,3,4.5|
6,4,2.3|
6,5,6|
6,6,8.4|
6,7,4.6|
7,0,6.3|
7,1,0.015|
7,2,3.4|
7,3,5.5|
7,4,1.2|
7,5,1.8|
7,6,1.2|
7,7,5.2|
];
constraint_x2_y2=[
0,0,0.63|
0,1,6.3|
0,2,8.3|
0,3,7.1|
0,4,5.5|
0,5,5.7|
0,6,8.7|
0,7,5.5|
1,0,3.1|
1,1,2.7|
1,2,9.1|
1,3,5.8|
1,4,7.4|
1,5,9.9|
1,6,9.2|
1,7,1.1|
2,0,8.1|
2,1,9.7|
2,2,1.1|
2,3,6.6|
2,4,2.9|
2,5,7.8|
2,6,9.8|
2,7,6.9|
3,0,8.8|
3,1,5.7|
3,2,4.2|
3,3,6.4|
3,4,8.1|
3,5,9.8|
3,6,2.3|
3,7,2.2|
4,0,9.2|
4,1,7.2|
4,2,2|
4,3,0.86|
4,4,1.1|
4,5,2.3|
4,6,1.7|
4,7,2.3|
5,0,6|
5,1,7.2|
5,2,7.6|
5,3,9.2|
5,4,0.81|
5,5,0.15|
5,6,2|
5,7,3.2|
6,0,2.5|
6,1,8.6|
6,2,7.2|
6,3,0.19|
6,4,6.4|
6,5,2.5|
6,6,9.4|
6,7,3.5|
7,0,9.8|
7,1,8.9|
7,2,9.1|
7,3,3.9|
7,4,6|
7,5,4.4|
7,6,5.2|
7,7,8.5|
];
constraint_x3_y3=[
0,0,2.6|
0,1,3.3|
0,2,6.3|
0,3,6|
0,4,1.2|
0,5,5.3|
0,6,0.13|
0,7,2.3|
1,0,9.7|
1,1,6.9|
1,2,4.1|
1,3,2.9|
1,4,3.8|
1,5,7.8|
1,6,7.5|
1,7,7|
2,0,4|
2,1,8.7|
2,2,1.4|
2,3,1.3|
2,4,8.6|
2,5,8.6|
2,6,8.2|
2,7,6.9|
3,0,2|
3,1,2.1|
3,2,8.8|
3,3,7.4|
3,4,5.8|
3,5,7.8|
3,6,9.2|
3,7,8.9|
4,0,8.9|
4,1,5.4|
4,2,8.2|
4,3,5.3|
4,4,8.1|
4,5,1.9|
4,6,5.3|
4,7,2.8|
5,0,0.86|
5,1,3.9|
5,2,9.7|
5,3,8.9|
5,4,5.5|
5,5,5.1|
5,6,7.8|
5,7,5.4|
6,0,6.1|
6,1,8.4|
6,2,5.5|
6,3,5|
6,4,3|
6,5,6.6|
6,6,2.6|
6,7,1.4|
7,0,9.2|
7,1,5.3|
7,2,3.4|
7,3,4.4|
7,4,4.7|
7,5,5.7|
7,6,2.7|
7,7,3|
];
constraint_x4_y4=[
0,0,6|
0,1,1.4|
0,2,0.58|
0,3,7.2|
0,4,0.41|
0,5,1.6|
0,6,4.1|
0,7,9|
1,0,5.5|
1,1,1.2|
1,2,9.2|
1,3,9.2|
1,4,1.6|
1,5,5.4|
1,6,6.7|
1,7,0.89|
2,0,2.9|
2,1,4.2|
2,2,3.2|
2,3,0.13|
2,4,6.5|
2,5,2.7|
2,6,8.3|
2,7,1.9|
3,0,6|
3,1,9.3|
3,2,8.6|
3,3,0.23|
3,4,1.2|
3,5,2.8|
3,6,6.1|
3,7,5.7|
4,0,9.5|
4,1,6|
4,2,0.79|
4,3,7.1|
4,4,8.7|
4,5,8.5|
4,6,5.5|
4,7,2.5|
5,0,5.2|
5,1,7.7|
5,2,2.5|
5,3,9.5|
5,4,6.1|
5,5,0.058|
5,6,4.2|
5,7,0.32|
6,0,0.31|
6,1,9.7|
6,2,1.6|
6,3,9.1|
6,4,5.1|
6,5,3.3|
6,6,7.8|
6,7,8.9|
7,0,3.9|
7,1,3.9|
7,2,0.76|
7,3,6.3|
7,4,6.2|
7,5,2.6|
7,6,1|
7,7,4.5|
];
constraint_x5_y5=[
0,0,0.29|
0,1,2.4|
0,2,0.81|
0,3,8.1|
0,4,0.32|
0,5,4.9|
0,6,4.4|
0,7,3|
1,0,7.9|
1,1,7.1|
1,2,8.1|
1,3,6.2|
1,4,2|
1,5,5.5|
1,6,1.5|
1,7,0.14|
2,0,9.3|
2,1,2.1|
2,2,1.6|
2,3,3|
2,4,8.5|
2,5,3.7|
2,6,1.1|
2,7,1.5|
3,0,7.1|
3,1,6|
3,2,8.9|
3,3,3|
3,4,10|
3,5,2|
3,6,4.3|
3,7,4.9|
4,0,2.7|
4,1,2.4|
4,2,2.4|
4,3,7.8|
4,4,8.9|
4,5,7.7|
4,6,5.2|
4,7,3.8|
5,0,5.2|
5,1,2|
5,2,9.6|
5,3,0.33|
5,4,5.2|
5,5,9.8|
5,6,1.7|
5,7,1.8|
6,0,0.87|
6,1,8.1|
6,2,4.4|
6,3,0.57|
6,4,9.1|
6,5,0.26|
6,6,7.9|
6,7,8.8|
7,0,3.9|
7,1,2.1|
7,2,5.6|
7,3,5.4|
7,4,5.7|
7,5,5.6|
7,6,4.7|
7,7,5.3|
];
constraint_x6_y6=[
0,0,8|
0,1,8.2|
0,2,3.9|
0,3,0.99|
0,4,1.3|
0,5,8.6|
0,6,6.5|
0,7,6.1|
1,0,3.7|
1,1,8.1|
1,2,8.5|
1,3,6|
1,4,5.2|
1,5,1.9|
1,6,6|
1,7,2.5|
2,0,2.1|
2,1,6.6|
2,2,7.5|
2,3,0.45|
2,4,8.2|
2,5,6.6|
2,6,1.7|
2,7,7.6|
3,0,3.9|
3,1,6.1|
3,2,7.1|
3,3,9.8|
3,4,6.5|
3,5,0.37|
3,6,7.4|
3,7,2.7|
4,0,1.5|
4,1,1.5|
4,2,2.4|
4,3,9.9|
4,4,9.3|
4,5,8.6|
4,6,5.5|
4,7,1.7|
5,0,7.2|
5,1,5|
5,2,4.1|
5,3,4.7|
5,4,2|
5,5,6.9|
5,6,7.1|
5,7,6.9|
6,0,3.4|
6,1,0.41|
6,2,4.4|
6,3,9.9|
6,4,0.25|
6,5,8.6|
6,6,6.9|
6,7,6.4|
7,0,1.7|
7,1,0.92|
7,2,8.2|
7,3,4.8|
7,4,0.81|
7,5,0.99|
7,6,3.7|
7,7,4.5|
];
constraint_x7_y7=[
0,0,8.1|
0,1,4.2|
0,2,8.7|
0,3,4.9|
0,4,4.8|
0,5,4.5|
0,6,0.097|
0,7,6.7|
1,0,9.2|
1,1,8.3|
1,2,0.61|
1,3,2.9|
1,4,2.1|
1,5,2.6|
1,6,4.6|
1,7,3.9|
2,0,5.6|
2,1,8|
2,2,4.3|
2,3,4.8|
2,4,8.8|
2,5,2|
2,6,6.6|
2,7,0.26|
3,0,4.8|
3,1,6.3|
3,2,3.7|
3,3,3.4|
3,4,2.3|
3,5,4.9|
3,6,2.4|
3,7,3.3|
4,0,5.7|
4,1,0.95|
4,2,3.3|
4,3,7.7|
4,4,2.6|
4,5,4.6|
4,6,0.45|
4,7,6.2|
5,0,3.3|
5,1,9.9|
5,2,3.6|
5,3,0.13|
5,4,5.7|
5,5,6.2|
5,6,7.6|
5,7,0.27|
6,0,3.8|
6,1,7.4|
6,2,0.27|
6,3,2.4|
6,4,3.7|
6,5,1.1|
6,6,3.9|
6,7,2|
7,0,0.43|
7,1,5.8|
7,2,0.5|
7,3,8.1|
7,4,2|
7,5,3.8|
7,6,1.9|
7,7,2.5|
];
constraint_x8_y8=[
0,0,9.5|
0,1,3|
0,2,1.3|
0,3,4.7|
0,4,6.2|
0,5,9.8|
0,6,9.3|
0,7,8.2|
1,0,4.1|
1,1,1.4|
1,2,8.7|
1,3,5.5|
1,4,7.4|
1,5,2.9|
1,6,1.7|
1,7,8.2|
2,0,2.2|
2,1,6.7|
2,2,9.7|
2,3,7.6|
2,4,8.6|
2,5,6.6|
2,6,0.11|
2,7,6.3|
3,0,8.7|
3,1,9.8|
3,2,5.4|
3,3,2.8|
3,4,8.9|
3,5,5.7|
3,6,2.6|
3,7,0.62|
4,0,7.2|
4,1,4.7|
4,2,8.2|
4,3,1.3|
4,4,8.1|
4,5,1.9|
4,6,7.3|
4,7,0.84|
5,0,9.1|
5,1,8.1|
5,2,4.2|
5,3,4.5|
5,4,5.6|
5,5,6.7|
5,6,2|
5,7,0.94|
6,0,6.2|
6,1,0.53|
6,2,3|
6,3,5.2|
6,4,0.69|
6,5,4.8|
6,6,1.2|
6,7,5|
7,0,6.1|
7,1,3.9|
7,2,8.3|
7,3,9.8|
7,4,7.1|
7,5,5.7|
7,6,3.9|
7,7,6|
];
initial_distribution_y1=[0.21,0.21,0.19,0.14,0.041,0.0031,0.18,0.032];
initial_distribution_y2=[0.32,0.085,0.078,0.048,0.16,0.079,0.09,0.14];
initial_distribution_y3=[0.11,0.08,0.057,0.25,0.11,0.029,0.27,0.089];
initial_distribution_y4=[0.24,0.2,0.051,0.1,0.05,0.095,0.039,0.22];
initial_distribution_y5=[0.016,0.12,0.11,0.094,0.0033,0.28,0.13,0.25];
initial_distribution_y6=[0.13,0.087,0.13,0.19,0.042,0.12,0.1,0.21];
initial_distribution_y7=[0.1,0.11,0.086,0.24,0.047,0.25,0.04,0.12];
initial_distribution_y8=[0.077,0.041,0.18,0.19,0.18,0.067,0.16,0.11];
transition_y1=[
0.19,0.023,0.0092,0.16,0.13,0.13,0.16,0.21|
0.24,0.22,0.0085,0.22,0.017,0.079,0.092,0.11|
0.14,0.13,0.14,0.1,0.091,0.15,0.1,0.15|
0.2,0.081,0.14,0.017,0.18,0.14,0.11,0.12|
0.17,0.18,0.13,0.18,0.13,0.021,0.11,0.071|
0.16,0.023,0.048,0.37,0.18,0.11,0.11,0.0051|
0.09,0.11,0.026,0.12,0.025,0.24,0.036,0.35|
0.17,0.024,0.076,0.15,0.17,0.16,0.13,0.12|
];
transition_y2=[
0.025,0.051,0.15,0.22,0.064,0.24,0.24,0.0077|
0.0076,0.12,0.17,0.19,0.14,0.094,0.15,0.12|
0.2,0.013,0.19,0.13,0.078,0.012,0.039,0.33|
0.19,0.0061,0.21,0.3,0.14,0.095,0.037,0.021|
0.04,0.025,0.31,0.097,0.16,0.3,0.055,0.019|
0.021,0.0064,0.17,0.21,0.11,0.2,0.2,0.084|
0.15,0.048,0.18,0.18,0.095,0.019,0.18,0.16|
0.18,0.028,0.046,0.13,0.17,0.076,0.2,0.17|
];
transition_y3=[
0.06,0.029,0.2,0.13,0.17,0.25,0.14,0.021|
0.14,0.17,0.031,0.21,0.12,0.13,0.2,0.017|
0.039,0.094,0.24,0.24,0.035,0.11,0.22,0.013|
0.08,0.11,0.14,0.25,0.24,0.019,0.068,0.09|
0.095,0.051,0.067,0.19,0.17,0.15,0.099,0.18|
0.016,0.2,0.16,0.18,0.086,0.18,0.12,0.068|
0.018,0.21,0.074,0.1,0.22,0.049,0.093,0.23|
0.22,0.2,0.083,0.12,0.023,0.046,0.24,0.067|
];
transition_y4=[
0.089,0.18,0.29,0.017,0.026,0.074,0.14,0.19|
0.11,0.18,0.2,0.023,0.062,0.17,0.16,0.095|
0.01,0.21,0.21,0.076,0.03,0.02,0.12,0.32|
0.16,0.022,0.17,0.13,0.17,0.13,0.064,0.17|
0.12,0.13,0.065,0.15,0.081,0.26,0.1,0.087|
0.22,0.16,0.082,0.031,0.15,0.065,0.13,0.16|
0.066,0.28,0.029,0.12,0.26,0.12,0.063,0.06|
0.017,0.36,0.16,0.051,0.058,0.076,0.15,0.12|
];
transition_y5=[
0.11,0.045,0.13,0.088,0.32,0.05,0.0046,0.24|
0.14,0.034,0.079,0.27,0.16,0.0032,0.11,0.21|
0.19,0.061,0.042,0.21,0.18,0.13,0.12,0.076|
0.041,0.066,0.21,0.064,0.2,0.075,0.18,0.17|
0.13,0.18,0.19,0.17,0.017,0.056,0.14,0.12|
0.27,0.06,0.16,0.12,0.014,0.048,0.14,0.2|
0.13,0.026,0.19,0.026,0.19,0.14,0.18,0.13|
0.18,0.038,0.088,0.25,0.18,0.19,0.061,0.021|
];
transition_y6=[
0.19,0.075,0.063,0.14,0.18,0.016,0.2,0.14|
0.16,0.1,0.054,0.15,0.19,0.14,0.064,0.15|
0.06,0.14,0.11,0.12,0.2,0.17,0.18,0.02|
0.08,0.16,0.17,0.19,0.016,0.057,0.17,0.15|
0.11,0.18,0.12,0.17,0.13,0.095,0.15,0.05|
0.0033,0.14,0.091,0.14,0.18,0.095,0.21,0.15|
0.07,0.2,0.23,0.056,0.085,0.051,0.15,0.16|
0.049,0.15,0.14,0.27,0.058,0.12,0.19,0.014|
];
transition_y7=[
0.14,0.17,0.029,0.12,0.27,0.02,0.14,0.12|
0.013,0.16,0.27,0.24,0.029,0.012,0.05,0.23|
0.12,0.16,0.0066,0.27,0.1,0.01,0.27,0.066|
0.078,0.15,0.081,0.18,0.14,0.075,0.13,0.16|
0.19,0.17,0.12,0.19,0.086,0.18,0.032,0.032|
0.11,0.21,0.091,0.14,0.078,0.18,0.19,0.0068|
0.009,0.21,0.2,0.038,0.16,0.16,0.061,0.16|
0.17,0.098,0.06,0.15,0.059,0.1,0.17,0.2|
];
transition_y8=[
0.16,0.18,0.017,0.19,0.17,0.046,0.049,0.18|
0.082,0.011,0.19,0.084,0.15,0.059,0.25,0.17|
0.058,0.15,0.023,0.14,0.15,0.19,0.17,0.11|
0.1,0.094,0.14,0.08,0.046,0.21,0.14,0.2|
0.0063,0.085,0.22,0.13,0.18,0.034,0.24,0.11|
0.059,0.25,0.047,0.21,0.13,0.058,0.057,0.19|
0.12,0.17,0.015,0.2,0.15,0.14,0.18,0.027|
0.071,0.23,0.07,0.068,0.16,0.2,0.17,0.037|
];
